NAME : amz1123.1646009_144509.tour
COMMENT : Cost = 1646009_144509
COMMENT : Found by LKH-AMZ [Keld Helsgaun] Sun May 11 14:46:32 2025
COMMENT : TW viol.: 0 #: 0
TYPE : TOUR
DIMENSION : 165
TOUR_SECTION
111
131
97
161
121
16
157
139
6
92
136
113
93
45
96
95
87
4
18
29
106
84
122
35
133
89
132
48
78
49
103
101
9
62
19
154
15
148
124
114
46
83
2
140
59
38
68
128
91
126
53
7
107
129
81
79
138
25
163
28
141
11
110
41
21
72
137
56
156
70
73
112
33
160
149
57
90
117
155
118
54
34
64
108
152
98
145
150
36
47
74
30
43
39
135
102
52
12
125
134
80
86
123
42
32
23
8
5
20
144
153
67
24
142
88
147
63
60
99
13
100
158
44
55
51
69
31
58
82
37
143
85
105
119
120
109
76
146
104
1
164
77
40
50
159
165
115
3
151
116
66
162
65
10
17
71
14
61
26
130
127
27
75
22
94
-1
EOF
